15 40
25
7 12 5 28
7 7 8 2
7 1 7 9
1 5 6 14
3 2 2 38
2 6 10 10
2 7 0 33
2 5 0 28
3 1 12 15
1 6 14 9
6 12 0 16
6 9 6 19
12 2 3 0
2 7 6 2
3 10 3 2
1 4 3 12
1 5 6 9
3 16 0 0
5 3 10 16
2 4 4 12
2 5 12 10
3 10 2 28
3 9 7 10
3 16 12 19
3 5 12 35
